m = 9;
n = 8;
N = 34;

wall = [| 0, 0, 1, 1, 1, 1, 1, 0|
              1, 1, 1, 0, 0, 0, 1, 0|
              1, 0, 0, 0, 0, 0, 1, 0|
              1, 1, 1, 0, 0, 0, 1, 0|
              1, 0, 1, 1, 0, 0, 1, 0|
              1, 0, 1, 0, 0, 0, 1, 1|
              1, 0, 0, 0, 0, 0, 0, 1|
              1, 0, 0, 0, 0, 0, 0, 1|
              1, 1, 1, 1, 1, 1, 1, 1|];
              
home = [|0, 0, 0, 0, 0, 0, 0, 0|
               0, 0, 0, 0, 0, 0, 0, 0 |
               0, 1, 0, 0, 0, 0, 0, 0 |
               0, 0, 0, 0, 0, 1, 0, 0 |
               0, 1, 0, 0, 0, 0, 0, 0 |
               0, 0, 0, 0, 1, 0, 0, 0 |
               0, 0, 0, 1, 0, 0, 1, 0 |
               0, 0, 0, 0, 1, 0, 0, 0 |
               0, 0, 0, 0, 0, 0, 0, 0 |];
               
start  = [|0, 0, 0, 0, 0, 0, 0, 0|
               0, 0, 0, 0, 0, 0, 0, 0 |
               0, 0, 0, 1, 0, 0, 0, 0 |
               0, 0, 0, 0, 1, 0, 0, 0 |
               0, 0, 0, 0, 1, 0, 0, 0 |
               0, 0, 0, 0, 0, 0, 0, 0 |
               0, 1, 0, 1, 1, 1, 0, 0 |
               0, 0, 0, 0, 0, 0, 0, 0 |
               0, 0, 0, 0, 0, 0, 0, 0 |];
               
Is = 3;
Js = 3;